CMD:
./solvers/bin/cadical --plain --no-reduce -t 1600 ./data/cnfs//oc8051gmdaaddr/oc8051gmdaaddr.57.cnf

c --- [ banner ] -------------------------------------------------------------
c 
c CaDiCaL SAT Solver
c Copyright (c) 2016-2024
c A. Biere, M. Fleury, N. Froleyks, K. Fazekas, F. Pollitt, T. Faller
c JKU Linz, University of Freiburg, TU Wien
c 
c Version 2.1.3 5296d3d2a9bf48c154ab2acb5e44625776d821bf
c g++ (Gentoo 12.3.1_p20230526 p2) 12.3.1 20230526 -Wall -Wextra -O3 -DNDEBUG
c Sat Aug 9 07:26:21 PDT 2025 Linux cedar2.int.cedar.computecanada.ca 5.14.0-362.24.2.el9_3.x86_64 x86_64
c 
c --- [ limit ] --------------------------------------------------------------
c 
c setting time limit to 1600 seconds real time (due to '-t 1600')
c 
c --- [ parsing input ] ------------------------------------------------------
c 
c reading DIMACS file from './data/cnfs//oc8051gmdaaddr/oc8051gmdaaddr.57.cnf'
c opening file to read './data/cnfs//oc8051gmdaaddr/oc8051gmdaaddr.57.cnf'
c found 'p cnf 670005 1951821' header
c parsed 1951821 clauses in 0.31 seconds process time
c 
c --- [ options ] ------------------------------------------------------------
c 
c   --compact=false                (different from default 'true')
c   --decompose=false              (different from default 'true')
c   --deduplicate=false            (different from default 'true')
c   --elim=false                   (different from default 'true')
c   --probe=false                  (different from default 'true')
c   --reduce=false                 (different from default 'true')
c   --subsume=false                (different from default 'true')
c   --ternary=false                (different from default 'true')
c   --transred=false               (different from default 'true')
c   --vivify=false                 (different from default 'true')
c 
c --- [ solving ] ------------------------------------------------------------
c 
c time measured in process time since initialization
c 
c  seconds   reductions  redundant   irredundant
c          MB    restarts       trail        variables
c           level   conflicts       glue           remaining
c 
c *  0.32 285  0 0   0    0    0  0% 0 1729636 539144 80%
c {  0.51 293  0 0   0    0    0  0% 0 1729636 539144 80%
c i  0.51 293  1 0   0    1    0 20% 0 1729636 538109 80%
c i  0.51 293  1 0   0    2    0 20% 0 1729636 538107 80%
c i  0.51 293  1 0   0    3    0 20% 0 1729636 537947 80%
c i  0.52 293  1 0   1    4    0 20% 0 1729636 537842 80%
c i  0.52 293 33 0   1    6    1 20% 0 1729636 537778 80%
c i  0.52 293 37 0   1    8    2 20% 0 1729636 537172 80%
c i  0.54 293 218 0   2   16    8 26% 1 1729636 537155 80%
c i  1.06 296 75 0  56  711  618 26% 4 1729636 537121 80%
c i  1.16 296 66 0  80  880  767 26% 4 1729636 537090 80%
c }  1.18 296 61 0  81 1000  875 25% 4 1729636 537087 80%
c [  1.18 296  0 0  81 1000  875  0% 0 1729636 537087 80%
c O  1.23 296 175 0  81 1004  879 39% 31 1729636 537087 80%
c ]  2.88 298 282 0  82 3003 2771 47% 15 1729636 537087 80%
c {  2.88 298 61 0  82 3003 2771 25% 4 1729636 537087 80%
c F  2.89 298 61 0  82 3005 2773 25% 4 1729636 537087 80%
c i  3.08 298 49 0 114 3577 3276 24% 4 1729636 537070 80%
c i  3.53 298 48 0 194 4281 3894 25% 4 1729636 537053 80%
c i  4.36 298 44 0 388 5598 5098 25% 4 1729636 537036 80%
c 
c  seconds   reductions  redundant   irredundant
c          MB    restarts       trail        variables
c           level   conflicts       glue           remaining
c 
c #  4.61 299 42 0 458 6006 5483 25% 5 1729636 537019 80%
c }  5.07 299 43 0 593 7004 6401 25% 5 1729636 537019 80%
c [  5.07 299 282 0 593 7004 6401 47% 15 1729636 537019 80%
c I  6.96 300 152 0 595 10010 9138 38% 13 1729636 537019 80%
c ]  9.04 301 124 0 598 15004 13847 38% 12 1729636 537019 80%
c {  9.04 301 43 0 598 15004 13847 25% 5 1729636 537019 80%
c B  9.06 302 43 0 601 15011 13854 25% 5 1729636 537019 80%
c i  9.21 302 42 0 665 15292 14104 25% 5 1729636 536995 80%
c i  9.22 302 41 0 671 15399 14142 25% 5 1729636 536849 80%
c i  9.94 302 44 0 712 15983 14673 25% 5 1729636 536810 80%
c W 15.69 303 42 0 1588 21013 18943 25% 5 1524851 536810 80%
c i 17.68 303 40 0 1946 22590 20381 25% 6 1524851 536776 80%
c i 22.08 303 41 0 2581 27160 24561 26% 6 1524851 536775 80%
c i 22.08 303 41 0 2581 27162 24562 26% 6 1524851 536774 80%
c i 22.08 303 41 0 2581 27167 24563 26% 6 1524851 536773 80%
c i 22.50 303 41 0 2609 27329 24713 26% 6 1524851 536772 80%
c i 22.51 303 41 0 2609 27330 24713 26% 6 1524851 536771 80%
c i 22.51 303 41 0 2609 27331 24713 26% 6 1524851 536770 80%
c F 23.23 303 41 0 2750 28014 25325 26% 6 1524851 536770 80%
c } 25.80 303 41 0 3227 31004 28039 26% 6 1524851 536770 80%
c 
c  seconds    reductions     redundant    irredundant
c          MB     restarts          trail         variables
c            level     conflicts        glue            remaining
c 
c [ 25.80 303 124 0 3227 31004 28039 38% 12 1524851 536770 80%
c B 29.68 303 91 0 3230 36017 32813 34% 12 1524851 536770 80%
c W 36.72 369 76 0 3234 45030 40911 32% 12 1524687 536770 80%
c O 42.09 369 61 0 3236 55032 49781 30% 11 1524687 536770 80%
... skipped 9 lines ...
c i 72.88 372 37 0 6269 86746 71648 26% 8 1524684 536365 80%
c i 76.95 372 37 0 6575 90266 74763 26% 8 1524684 536357 80%
c # 78.09 372 37 0 6644 91036 75426 26% 8 1524684 536356 80%
c i 83.08 372 37 0 6989 95011 78829 27% 8 1524684 536034 80%
c i 88.65 372 38 0 7285 100470 83508 27% 8 1524684 536026 80%
c i 90.63 372 38 0 7437 101565 84453 27% 8 1524684 535728 80%
c i 92.46 372 38 0 7553 102916 85566 27% 8 1524684 535695 80%
c 
c  seconds   reductions      redundant   irredundant
c          MB    restarts           trail        variables
c           level     conflicts         glue           remaining
c 
c i 94.18 372 38 0 7634 104475 86818 27% 8 1524684 535289 80%
c B 94.70 372 37 0 7645 105039 87296 27% 8 1524684 535289 80%
c i 98.59 372 37 0 7837 109132 90693 27% 8 1524684 535272 80%
c i 99.08 372 37 0 7845 109568 91051 27% 8 1524684 535255 80%
c i 101.70 372 37 0 8000 111961 93122 28% 8 1524684 535084 80%
c i 105.11 372 36 0 8180 114430 95169 28% 8 1524684 534982 80%
c i 108.12 372 36 0 8217 116801 96968 28% 8 1524684 534885 80%
c i 110.50 372 35 0 8291 118425 98293 28% 7 1524684 534834 80%
c i 110.51 372 35 0 8291 118444 98299 28% 7 1524684 534703 80%
c i 112.51 372 35 0 8324 119897 99575 28% 7 1524684 534532 80%
c W 113.11 371 35 0 8324 120040 65942 28% 7 1514709 534532 80%
c i 115.07 371 35 0 8373 121667 67218 28% 7 1514709 534515 80%
c i 122.80 371 34 0 8754 126818 71585 28% 7 1514709 534514 80%
c i 122.82 371 34 0 8756 126874 71632 28% 7 1514709 534513 80%
c i 122.82 371 34 0 8756 126875 71632 28% 7 1514709 534512 80%
c i 122.83 371 34 0 8756 126883 71639 28% 7 1514709 534511 80%
c i 122.83 371 34 0 8756 126884 71639 28% 7 1514709 534510 80%
c i 122.83 371 34 0 8756 126885 71639 28% 7 1514709 534502 80%
c } 123.08 371 34 0 8765 127004 71731 28% 7 1514709 534500 80%
c [ 123.08 371 60 0 8765 127004 71731 30% 13 1514709 534500 80%
c 
c  seconds    reductions      redundant    irredundant
c           MB    restarts           trail         variables
c            level     conflicts         glue            remaining
c 
c i 128.71 371 58 0 8765 129278 73585 30% 13 1514709 534483 80%
c i 129.88 371 57 0 8765 129970 74088 30% 12 1514709 534369 80%
c i 130.09 371 57 0 8765 130081 74178 30% 12 1514709 534368 80%
c i 130.25 371 57 0 8765 130118 74196 30% 12 1514709 533945 80%
c i 130.35 371 57 0 8765 130162 74215 30% 12 1514709 531059 79%
c i 130.59 371 57 0 8765 130283 74266 30% 12 1514709 528499 79%
c i 130.59 371 57 0 8765 130286 74266 30% 12 1514709 528310 79%
c ] 130.59 371 57 0 8765 130288 74266 30% 12 1514709 524230 78%
c 0 130.59 371 57 0 8765 130288 74266 30% 12 1514709 524230 78%
c 
c --- [ result ] -------------------------------------------------------------
c 
s UNSATISFIABLE
c 
c --- [ run-time profiling ] -------------------------------------------------
c 
c process time taken by individual solving procedures
c (percentage relative to process time for solving)
c 
c       130.27  100.00% search
c        93.46   71.74% unstable
c        34.17   26.23% stable
c         2.45    1.88% walk
c         0.31    0.24% parse
c         0.20    0.15% lucky
c         0.00    0.00% simplify
c   =================================
c       130.27   99.76% solve
c 
c last line shows process time for solving
c (percentage relative to total process time)
c 
c --- [ statistics ] ---------------------------------------------------------
c 
c chronological:             38063        29.21 %  of conflicts
c conflicts:                130288      1000.13    per second
c decisions:                463470      3557.74    per second
c fixed:                    145733        21.75 %  of all variables
c learned:                  125235        96.12 %  per conflict
c learned_lits:            5055837       100.00 %  learned literals
c minimized:                     0         0.00 %  learned literals
c shrunken:                1170178        23.15 %  learned literals
c minishrunken:            1078656        21.33 %  learned literals
c otfs:                        512         0.39 %  of conflict
c propagations:         1137481783         8.73 M  per second
c rephased:                     15      8685.87    interval
c restarts:                   8765        14.86    interval
c stabilizing:                   4        34.75 %  of conflicts
c subsumed:                  13163         0.71 %  of all clauses
c strengthened:                497         0.03 %  of all clauses
c walked:                        4     32572.00    interval
c 
c seconds are measured in process time for solving
c 
c --- [ resources ] ----------------------------------------------------------
c 
c total process time since initialization:       130.59    seconds
c total real time since initialization:          130.99    seconds
c maximum resident set size of process:          427.64    MB
c 
c --- [ shutting down ] ------------------------------------------------------
c 
c exit 20
